100
36 64
94 47
10 23
16 46
25 79
41 30
81 45
14 79
42 56
90 17
41 39
21 14
41 46
65 96
13 49
21 14
57 2
14 42
66 62
58 96
5 51
41 50
50 99
84 85
97 90
47 76
11 54
60 97
60 89
58 68
30 93
9 60
47 44
19 40
15 40
88 21
33 58
21 51
57 7
81 6
49 6
51 78
9 62
84 36
95 76
89 44
10 49
69 16
75 66
97 11
74 69
1 14
96 91
46 22
74 92
DEMAND_SECTION Optimal value: 1073
0 
3 
12 
25 
4 
11 
20 
21 
10 
20 
13 
14 
16 
17 
11 
36 
6 
7 
21 
11 
17 
22 
10 
19 
21 
23 
19 
15 
22 
7 
11 
15 
22 
12 
24 
25 
2 
15 
18 
13 
3 
20 
14 
10 
10 
66 
10 
7 
12 
24 
5 
18 
7 
11 
12 